p cnf 83 673
9 26 34 58 66 0
19 67 0
10 28 43 51 60 0
2 20 36 0
54 62 80 0
22 37 45 63 81 0
6 23 38 46 55 0
7 16 0
48 57 0
-1 -19 0
-1 -20 2 0
-1 -21 3 0
-1 -22 5 0
-1 -23 6 0
-1 -24 7 0
-1 -25 8 0
-2 -27 0
-2 -28 1 0
-2 -29 3 0
-2 -30 4 0
-2 -31 5 0
-2 6 0
-2 -32 7 0
-2 -33 8 0
-3 -35 1 0
-3 -36 2 0
-3 -37 5 0
-3 -38 6 0
-3 -39 7 0
-3 -40 8 0
-4 -42 0
-4 -43 1 0
-4 -44 2 0
-4 3 0
-4 -45 5 0
-4 -46 6 0
-4 -47 7 0
-4 -48 8 0
-5 -50 0
-5 -51 1 0
-5 -52 2 0
-5 -53 3 0
-5 -54 4 0
-5 -55 6 0
-5 -56 7 0
-5 -57 8 0
-6 -59 0
-6 -60 1 0
-6 -61 3 0
-6 -62 4 0
-6 -63 5 0
-6 -64 7 0
-6 -65 8 0
-7 -67 0
-7 -68 1 0
-7 -69 2 0
-7 -70 3 0
-7 -71 4 0
-7 -72 5 0
-7 -73 6 0
-7 -74 8 0
-8 -76 0
-8 -77 1 0
-8 -78 2 0
-8 -79 3 0
-8 -80 4 0
-8 -81 5 0
-8 -82 6 0
-8 -83 7 0
-9 -1 10 0
-9 -2 11 0
-9 -3 12 0
-9 -4 13 0
-9 -5 14 0
-9 -6 15 0
-9 -7 16 0
-9 -8 17 0
-10 -18 9 0
-10 -20 11 0
-10 -21 12 0
-10 -22 14 0
-10 -23 15 0
-10 -24 16 0
-10 -25 17 0
-11 -26 9 0
-11 -28 10 0
-11 -29 12 0
-11 -30 13 0
-11 -31 14 0
-11 15 0
-11 -32 16 0
-11 -33 17 0
-12 -34 9 0
-12 -35 10 0
-12 -36 11 0
-12 -37 14 0
-12 -38 15 0
-12 -39 16 0
-12 -40 17 0
-13 -41 9 0
-13 -43 10 0
-13 -44 11 0
-13 12 0
-13 -45 14 0
-13 -46 15 0
-13 -47 16 0
-13 -48 17 0
-14 -49 9 0
-14 -51 10 0
-14 -52 11 0
-14 -53 12 0
-14 -54 13 0
-14 -55 15 0
-14 -56 16 0
-14 -57 17 0
-15 -58 9 0
-15 -60 10 0
-15 -61 12 0
-15 -62 13 0
-15 -63 14 0
-15 -64 16 0
-15 -65 17 0
-16 -66 9 0
-16 -68 10 0
-16 -69 11 0
-16 -70 12 0
-16 -71 13 0
-16 -72 14 0
-16 -73 15 0
-16 -74 17 0
-17 -75 9 0
-17 -77 10 0
-17 -78 11 0
-17 -79 12 0
-17 -80 13 0
-17 -81 14 0
-17 -82 15 0
-17 -83 16 0
-18 -2 20 0
-18 -3 21 0
-18 -4 0
-18 -5 22 0
-18 -6 23 0
-18 -7 24 0
-18 -8 25 0
-19 -9 18 0
-19 -11 20 0
-19 -12 21 0
-19 -13 0
-19 -14 22 0
-19 -15 23 0
-19 -16 24 0
-19 -17 25 0
-20 -26 18 0
-20 -27 19 0
-20 -29 21 0
-20 -30 0
-20 -31 22 0
-20 23 0
-20 -32 24 0
-20 -33 25 0
-21 -34 18 0
-21 -36 20 0
-21 -37 22 0
-21 -38 23 0
-21 -39 24 0
-21 -40 25 0
-22 -49 18 0
-22 -50 19 0
-22 -52 20 0
-22 -53 21 0
-22 -54 0
-22 -55 23 0
-22 -56 24 0
-22 -57 25 0
-23 -58 18 0
-23 -59 19 0
-23 -61 21 0
-23 -62 0
-23 -63 22 0
-23 -64 24 0
-23 -65 25 0
-24 -66 18 0
-24 -67 19 0
-24 -69 20 0
-24 -70 21 0
-24 -71 0
-24 -72 22 0
-24 -73 23 0
-24 -74 25 0
-25 -75 18 0
-25 -76 19 0
-25 -78 20 0
-25 -79 21 0
-25 -80 0
-25 -81 22 0
-25 -82 23 0
-25 -83 24 0
-26 -1 28 0
-26 -3 29 0
-26 -4 30 0
-26 -5 31 0
-26 -7 32 0
-26 -8 33 0
-27 -9 26 0
-27 -10 28 0
-27 -12 29 0
-27 -13 30 0
-27 -14 31 0
-27 -16 32 0
-27 -17 33 0
-28 -18 26 0
-28 -19 27 0
-28 -21 29 0
-28 -22 31 0
-28 -24 32 0
-28 -25 33 0
-29 -34 26 0
-29 -35 28 0
-29 -37 31 0
-29 -39 32 0
-29 -40 33 0
-30 -41 26 0
-30 -42 27 0
-30 -43 28 0
-30 29 0
-30 -45 31 0
-30 -47 32 0
-30 -48 33 0
-31 -49 26 0
-31 -50 27 0
-31 -51 28 0
-31 -53 29 0
-31 -54 30 0
-31 -56 32 0
-31 -57 33 0
-58 26 0
-59 27 0
-60 28 0
-61 29 0
-62 30 0
-63 31 0
-64 32 0
-65 33 0
-32 -66 26 0
-32 -67 27 0
-32 -68 28 0
-32 -70 29 0
-32 -71 30 0
-32 -72 31 0
-32 -74 33 0
-33 -75 26 0
-33 -76 27 0
-33 -77 28 0
-33 -79 29 0
-33 -80 30 0
-33 -81 31 0
-33 -83 32 0
-34 -1 35 0
-34 -2 36 0
-34 -4 0
-34 -5 37 0
-34 -6 38 0
-34 -7 39 0
-34 -8 40 0
-35 -18 34 0
-35 -19 0
-35 -20 36 0
-35 -22 37 0
-35 -23 38 0
-35 -24 39 0
-35 -25 40 0
-36 -26 34 0
-36 -27 0
-36 -28 35 0
-36 -30 0
-36 -31 37 0
-36 38 0
-36 -32 39 0
-36 -33 40 0
-37 -49 34 0
-37 -50 0
-37 -51 35 0
-37 -52 36 0
-37 -54 0
-37 -55 38 0
-37 -56 39 0
-37 -57 40 0
-38 -58 34 0
-38 -59 0
-38 -60 35 0
-38 -62 0
-38 -63 37 0
-38 -64 39 0
-38 -65 40 0
-39 -66 34 0
-39 -67 0
-39 -68 35 0
-39 -69 36 0
-39 -71 0
-39 -72 37 0
-39 -73 38 0
-39 -74 40 0
-40 -75 34 0
-40 -76 0
-40 -77 35 0
-40 -78 36 0
-40 -80 0
-40 -81 37 0
-40 -82 38 0
-40 -83 39 0
-41 -1 43 0
-41 -2 44 0
-41 -5 45 0
-41 -6 46 0
-41 -7 47 0
-41 -8 48 0
-42 -9 41 0
-42 -10 43 0
-42 -11 44 0
-42 -14 45 0
-42 -15 46 0
-42 -16 47 0
-42 -17 48 0
-43 -18 41 0
-43 -19 42 0
-43 -20 44 0
-43 -22 45 0
-43 -23 46 0
-43 -24 47 0
-43 -25 48 0
-44 -26 41 0
-44 -27 42 0
-44 -28 43 0
-44 -31 45 0
-44 46 0
-44 -32 47 0
-44 -33 48 0
-34 41 0
-35 43 0
-36 44 0
-37 45 0
-38 46 0
-39 47 0
-40 48 0
-45 -49 41 0
-45 -50 42 0
-45 -51 43 0
-45 -52 44 0
-45 -55 46 0
-45 -56 47 0
-45 -57 48 0
-46 -58 41 0
-46 -59 42 0
-46 -60 43 0
-46 -63 45 0
-46 -64 47 0
-46 -65 48 0
-47 -66 41 0
-47 -67 42 0
-47 -68 43 0
-47 -69 44 0
-47 -72 45 0
-47 -73 46 0
-47 -74 48 0
-48 -75 41 0
-48 -76 42 0
-48 -77 43 0
-48 -78 44 0
-48 -81 45 0
-48 -82 46 0
-48 -83 47 0
-49 -1 51 0
-49 -2 52 0
-49 -3 53 0
-49 -4 54 0
-49 -6 55 0
-49 -7 56 0
-49 -8 57 0
-50 -9 49 0
-50 -10 51 0
-50 -11 52 0
-50 -12 53 0
-50 -13 54 0
-50 -15 55 0
-50 -16 56 0
-50 -17 57 0
-51 -18 49 0
-51 -19 50 0
-51 -20 52 0
-51 -21 53 0
-51 -23 55 0
-51 -24 56 0
-51 -25 57 0
-52 -26 49 0
-52 -27 50 0
-52 -28 51 0
-52 -29 53 0
-52 -30 54 0
-52 55 0
-52 -32 56 0
-52 -33 57 0
-53 -34 49 0
-53 -35 51 0
-53 -36 52 0
-53 -38 55 0
-53 -39 56 0
-53 -40 57 0
-54 -41 49 0
-54 -42 50 0
-54 -43 51 0
-54 -44 52 0
-54 53 0
-54 -46 55 0
-54 -47 56 0
-54 -48 57 0
-55 -58 49 0
-55 -59 50 0
-55 -60 51 0
-55 -61 53 0
-55 -62 54 0
-55 -64 56 0
-55 -65 57 0
-56 -66 49 0
-56 -67 50 0
-56 -68 51 0
-56 -69 52 0
-56 -70 53 0
-56 -71 54 0
-56 -73 55 0
-56 -74 57 0
-57 -75 49 0
-57 -76 50 0
-57 -77 51 0
-57 -78 52 0
-57 -79 53 0
-57 -80 54 0
-57 -82 55 0
-57 -83 56 0
-58 -1 60 0
-58 -2 0
-58 -3 61 0
-58 -4 62 0
-58 -5 63 0
-58 -7 64 0
-58 -8 65 0
-59 -9 58 0
-59 -10 60 0
-59 -11 0
-59 -12 61 0
-59 -13 62 0
-59 -14 63 0
-59 -16 64 0
-59 -17 65 0
-60 -18 58 0
-60 -19 59 0
-60 -20 0
-60 -21 61 0
-60 -22 63 0
-60 -24 64 0
-60 -25 65 0
-61 -34 58 0
-61 -35 60 0
-61 -36 0
-61 -37 63 0
-61 -39 64 0
-61 -40 65 0
-62 -41 58 0
-62 -42 59 0
-62 -43 60 0
-62 -44 0
-62 61 0
-62 -45 63 0
-62 -47 64 0
-62 -48 65 0
-63 -49 58 0
-63 -50 59 0
-63 -51 60 0
-63 -52 0
-63 -53 61 0
-63 -54 62 0
-63 -56 64 0
-63 -57 65 0
-64 -66 58 0
-64 -67 59 0
-64 -68 60 0
-64 -69 0
-64 -70 61 0
-64 -71 62 0
-64 -72 63 0
-64 -74 65 0
-65 -75 58 0
-65 -76 59 0
-65 -77 60 0
-65 -78 0
-65 -79 61 0
-65 -80 62 0
-65 -81 63 0
-65 -83 64 0
-66 -1 68 0
-66 -2 69 0
-66 -3 70 0
-66 -4 71 0
-66 -5 72 0
-66 -6 73 0
-66 -8 74 0
-67 -9 66 0
-67 -10 68 0
-67 -11 69 0
-67 -12 70 0
-67 -13 71 0
-67 -14 72 0
-67 -15 73 0
-67 -17 74 0
-68 -18 66 0
-68 -19 67 0
-68 -20 69 0
-68 -21 70 0
-68 -22 72 0
-68 -23 73 0
-68 -25 74 0
-69 -26 66 0
-69 -27 67 0
-69 -28 68 0
-69 -29 70 0
-69 -30 71 0
-69 -31 72 0
-69 73 0
-69 -33 74 0
-70 -34 66 0
-70 -35 68 0
-70 -36 69 0
-70 -37 72 0
-70 -38 73 0
-70 -40 74 0
-71 -41 66 0
-71 -42 67 0
-71 -43 68 0
-71 -44 69 0
-71 70 0
-71 -45 72 0
-71 -46 73 0
-71 -48 74 0
-72 -49 66 0
-72 -50 67 0
-72 -51 68 0
-72 -52 69 0
-72 -53 70 0
-72 -54 71 0
-72 -55 73 0
-72 -57 74 0
-73 -58 66 0
-73 -59 67 0
-73 -60 68 0
-73 -61 70 0
-73 -62 71 0
-73 -63 72 0
-73 -65 74 0
-74 -75 66 0
-74 -76 67 0
-74 -77 68 0
-74 -78 69 0
-74 -79 70 0
-74 -80 71 0
-74 -81 72 0
-74 -82 73 0
-75 -1 77 0
-75 -2 78 0
-75 -3 79 0
-75 -4 80 0
-75 -5 81 0
-75 -6 82 0
-75 -7 83 0
-76 -9 75 0
-76 -10 77 0
-76 -11 78 0
-76 -12 79 0
-76 -13 80 0
-76 -14 81 0
-76 -15 82 0
-76 -16 83 0
-77 -18 75 0
-77 -19 76 0
-77 -20 78 0
-77 -21 79 0
-77 -22 81 0
-77 -23 82 0
-77 -24 83 0
-78 -26 75 0
-78 -27 76 0
-78 -28 77 0
-78 -29 79 0
-78 -30 80 0
-78 -31 81 0
-78 82 0
-78 -32 83 0
-79 -34 75 0
-79 -35 77 0
-79 -36 78 0
-79 -37 81 0
-79 -38 82 0
-79 -39 83 0
-80 -41 75 0
-80 -42 76 0
-80 -43 77 0
-80 -44 78 0
-80 79 0
-80 -45 81 0
-80 -46 82 0
-80 -47 83 0
-81 -49 75 0
-81 -50 76 0
-81 -51 77 0
-81 -52 78 0
-81 -53 79 0
-81 -54 80 0
-81 -55 82 0
-81 -56 83 0
-82 -58 75 0
-82 -59 76 0
-82 -60 77 0
-82 -61 79 0
-82 -62 80 0
-82 -63 81 0
-82 -64 83 0
-83 -66 75 0
-83 -67 76 0
-83 -68 77 0
-83 -69 78 0
-83 -70 79 0
-83 -71 80 0
-83 -72 81 0
-83 -73 82 0
-1 -18 0
-2 -26 0
-3 -34 0
-4 -41 0
-5 -49 0
-6 -58 0
-7 -66 0
-8 -75 0
-10 -19 0
-11 -27 0
-13 -42 0
-14 -50 0
-15 -59 0
-16 -67 0
-17 -76 0
-20 -28 0
-21 -35 0
-22 -51 0
-23 -60 0
-24 -68 0
-25 -77 0
-29 -36 0
-30 -44 0
-31 -52 0
-32 -69 0
-33 -78 0
-37 -53 0
-38 -61 0
-39 -70 0
-40 -79 0
-45 -54 0
-46 -62 0
-47 -71 0
-48 -80 0
-55 -63 0
-56 -72 0
-57 -81 0
-64 -73 0
-65 -82 0
-74 -83 0
